benchmarks/VRPTW/TSPTW/solution/n60w100.001.txt.solution
1 7 51 44 58 18 2 20 52 37 48 30 39 47 27 6 19 21 31 57 40 13 38 59 46 35 16 45 24 41 49 29 55 8 17 9 42 32 25 43 23 14 3 53 33 15 56 34 26 11 60 5 36 28 22 12 4 10 61 54 50 
515
